
%FILE DATA:	Soccer Computational Problem for MiniZinc Models	%
%AUTHOR:	Jack Wall	%
%CONTACT:  	116397063@umail.ucc.ie			%
%LAST UPDATE:	03/02/2020, 19:05:33						%
%DESCRIPTION: 	108 games played with 24 games left				%


n=12; %number of teams

%Games to play
games=[|9,2|10,9|4,3|4,5|9,3|11,5|8,6|3,4|4,1|8,1|12,11|7,1|6,4|7,10|8,9|7,6|9,7|11,1|8,3|9,5|10,12|10,11|2,12|4,9|];

%Initial points
iPoints=[27,26,20,14,17,24,16,38,24,23,27,30];

%POSITION CONSTRAINTS
% [|teamID, operator, position|...]
% operators index:
%  1 for =  operator
%  2 for >  operator
%  3 for >= operator
%  4 for <  operator
%  5 for <= operator
positionConstraints=[|8,4,2|12,4,3|11,3,3|1,3,4|];